62      4       
13      15      19      18      
0       0       0       0       0       3       2       3       4       
6       1       0       0       0       3       5       10      20      
2       0       0       10      0       3       7       8       9       
3       8       0       0       0       3       6       18      23      
1       5       0       0       0       3       17      24      33      
10      0       0       7       0       2       11      28      
8       0       0       10      0       3       26      39      41      
10      0       0       3       0       3       15      18      56      
8       0       0       4       0       3       16      40      41      
8       0       4       0       0       1       31      
5       0       0       10      0       3       12      13      19      
4       0       0       3       0       3       14      32      37      
7       2       0       0       0       1       22      
9       0       0       0       8       3       44      48      49      
8       0       0       0       8       3       24      33      37      
7       0       1       0       0       1       42      
3       0       6       0       0       2       27      59      
5       0       0       0       6       2       34      57      
1       0       0       7       0       3       21      29      51      
1       0       1       0       0       2       25      39      
7       0       0       9       0       2       41      43      
7       0       3       0       0       2       26      30      
9       0       0       3       0       2       37      53      
1       4       0       0       0       2       44      45      
1       0       9       0       0       3       31      33      38      
3       0       0       6       0       1       34      
5       0       0       0       7       2       53      55      
1       0       0       6       0       2       30      39      
2       9       0       0       0       1       44      
9       0       0       0       1       2       32      49      
8       0       0       0       1       2       32      43      
3       7       0       0       0       2       34      51      
6       0       5       0       0       3       35      36      60      
2       0       8       0       0       1       55      
10      0       0       0       2       1       46      
3       3       0       0       0       1       54      
9       2       0       0       0       1       38      
4       2       0       0       0       1       58      
5       0       0       0       3       2       43      61      
4       9       0       0       0       2       52      55      
8       1       0       0       0       1       49      
9       0       0       7       0       1       45      
1       0       0       0       6       3       46      48      56      
7       0       0       0       3       2       57      58      
8       0       0       0       9       2       51      54      
4       0       3       0       0       1       47      
4       8       0       0       0       1       50      
3       0       0       0       1       1       59      
7       0       2       0       0       2       52      53      
1       0       0       0       7       1       59      
9       0       10      0       0       1       52      
10      9       0       0       0       1       61      
10      7       0       0       0       2       54      56      
5       0       0       7       0       1       57      
9       0       0       6       0       1       60      
8       5       0       0       0       1       58      
8       0       0       0       10      1       61      
2       0       0       0       2       1       60      
2       0       0       8       0       1       62      
3       9       0       0       0       1       62      
9       0       4       0       0       1       62      
0       0       0       0       0       0       